p cnf 200 1110
-101 13 0
-101 17 0
-101 -41 0
-101 -46 0
-101 -11 0
-101 27 0
-101 35 0
-101 -42 0
-101 -67 0
-101 95 0
101 -13 -17 41 46 11 -27 -35 42 67 -95 0
-102 7 0
-102 -81 0
-102 -87 0
-102 44 0
-102 -16 0
-102 -21 0
-102 27 0
-102 -59 0
-102 -35 0
-102 15 0
102 -7 81 87 -44 16 21 -27 59 35 -15 0
-103 -34 0
-103 -79 0
-103 -16 0
-103 -7 0
-103 80 0
-103 -64 0
-103 35 0
-103 -70 0
-103 -67 0
-103 -98 0
103 34 79 16 7 -80 64 -35 70 67 98 0
-104 21 0
-104 -65 0
-104 -35 0
-104 -53 0
-104 -10 0
-104 94 0
-104 -47 0
-104 -75 0
-104 -93 0
-104 -7 0
104 -21 65 35 53 10 -94 47 75 93 7 0
-105 92 0
-105 -55 0
-105 77 0
-105 88 0
-105 43 0
-105 -98 0
-105 80 0
-105 -39 0
-105 -8 0
-105 -90 0
105 -92 55 -77 -88 -43 98 -80 39 8 90 0
-106 -96 0
-106 -3 0
-106 -31 0
-106 -73 0
-106 -23 0
-106 71 0
-106 11 0
-106 -40 0
-106 -36 0
-106 -85 0
106 96 3 31 73 23 -71 -11 40 36 85 0
-107 3 0
-107 -13 0
-107 14 0
-107 -65 0
-107 7 0
-107 -91 0
-107 82 0
-107 30 0
-107 -17 0
-107 -75 0
107 -3 13 -14 65 -7 91 -82 -30 17 75 0
-108 75 0
-108 -37 0
-108 14 0
-108 38 0
-108 74 0
-108 39 0
-108 -67 0
-108 -59 0
-108 -51 0
-108 45 0
108 -75 37 -14 -38 -74 -39 67 59 51 -45 0
-109 59 0
-109 75 0
-109 -72 0
-109 3 0
-109 1 0
-109 37 0
-109 -7 0
-109 19 0
-109 4 0
-109 -58 0
109 -59 -75 72 -3 -1 -37 7 -19 -4 58 0
-110 -85 0
-110 -8 0
-110 37 0
-110 12 0
-110 -79 0
-110 -86 0
-110 -60 0
-110 64 0
-110 -82 0
-110 -2 0
110 85 8 -37 -12 79 86 60 -64 82 2 0
101 102 103 104 105 106 107 108 109 110 0
-111 69 0
-111 44 0
-111 42 0
-111 20 0
-111 30 0
-111 3 0
-111 32 0
-111 -82 0
-111 78 0
-111 -58 0
111 -69 -44 -42 -20 -30 -3 -32 82 -78 58 0
-112 74 0
-112 83 0
-112 -76 0
-112 -70 0
-112 -81 0
-112 61 0
-112 80 0
-112 64 0
-112 4 0
-112 -7 0
112 -74 -83 76 70 81 -61 -80 -64 -4 7 0
-113 -37 0
-113 -35 0
-113 -71 0
-113 -67 0
-113 74 0
-113 -29 0
-113 -76 0
-113 -33 0
-113 -94 0
-113 18 0
113 37 35 71 67 -74 29 76 33 94 -18 0
-114 70 0
-114 67 0
-114 77 0
-114 -90 0
-114 54 0
-114 25 0
-114 -59 0
-114 57 0
-114 68 0
-114 4 0
114 -70 -67 -77 90 -54 -25 59 -57 -68 -4 0
-115 14 0
-115 -94 0
-115 69 0
-115 1 0
-115 90 0
-115 74 0
-115 -92 0
-115 56 0
-115 93 0
-115 68 0
115 -14 94 -69 -1 -90 -74 92 -56 -93 -68 0
-116 70 0
-116 -74 0
-116 -53 0
-116 8 0
-116 -43 0
-116 -98 0
-116 -18 0
-116 -42 0
-116 36 0
-116 -5 0
116 -70 74 53 -8 43 98 18 42 -36 5 0
-117 63 0
-117 -6 0
-117 -41 0
-117 -39 0
-117 -92 0
-117 35 0
-117 -2 0
-117 99 0
-117 -10 0
-117 13 0
117 -63 6 41 39 92 -35 2 -99 10 -13 0
-118 -80 0
-118 -87 0
-118 31 0
-118 93 0
-118 -63 0
-118 -71 0
-118 61 0
-118 -25 0
-118 -15 0
-118 76 0
118 80 87 -31 -93 63 71 -61 25 15 -76 0
-119 76 0
-119 -10 0
-119 -24 0
-119 3 0
-119 62 0
-119 -92 0
-119 51 0
-119 -85 0
-119 -69 0
-119 22 0
119 -76 10 24 -3 -62 92 -51 85 69 -22 0
-120 64 0
-120 53 0
-120 44 0
-120 12 0
-120 68 0
-120 75 0
-120 87 0
-120 38 0
-120 58 0
-120 74 0
120 -64 -53 -44 -12 -68 -75 -87 -38 -58 -74 0
111 112 113 114 115 116 117 118 119 120 0
-121 -44 0
-121 13 0
-121 39 0
-121 69 0
-121 94 0
-121 -41 0
-121 -78 0
-121 7 0
-121 85 0
-121 -17 0
121 44 -13 -39 -69 -94 41 78 -7 -85 17 0
-122 94 0
-122 1 0
-122 70 0
-122 -13 0
-122 18 0
-122 9 0
-122 -51 0
-122 95 0
-122 -91 0
-122 -27 0
122 -94 -1 -70 13 -18 -9 51 -95 91 27 0
-123 -49 0
-123 -64 0
-123 -45 0
-123 -78 0
-123 -42 0
-123 98 0
-123 84 0
-123 -19 0
-123 -38 0
-123 15 0
123 49 64 45 78 42 -98 -84 19 38 -15 0
-124 -25 0
-124 -79 0
-124 7 0
-124 -84 0
-124 -60 0
-124 -55 0
-124 -51 0
-124 -8 0
-124 73 0
-124 68 0
124 25 79 -7 84 60 55 51 8 -73 -68 0
-125 74 0
-125 -76 0
-125 -37 0
-125 -70 0
-125 50 0
-125 -66 0
-125 -63 0
-125 10 0
-125 53 0
-125 32 0
125 -74 76 37 70 -50 66 63 -10 -53 -32 0
-126 -41 0
-126 89 0
-126 -67 0
-126 17 0
-126 37 0
-126 56 0
-126 6 0
-126 20 0
-126 75 0
-126 29 0
126 41 -89 67 -17 -37 -56 -6 -20 -75 -29 0
-127 -95 0
-127 21 0
-127 -83 0
-127 78 0
-127 -7 0
-127 -53 0
-127 57 0
-127 -14 0
-127 65 0
-127 -6 0
127 95 -21 83 -78 7 53 -57 14 -65 6 0
-128 -75 0
-128 21 0
-128 -53 0
-128 -34 0
-128 -26 0
-128 -88 0
-128 76 0
-128 -90 0
-128 -31 0
-128 67 0
128 75 -21 53 34 26 88 -76 90 31 -67 0
-129 -60 0
-129 -61 0
-129 -17 0
-129 -40 0
-129 78 0
-129 100 0
-129 -33 0
-129 -8 0
-129 23 0
-129 93 0
129 60 61 17 40 -78 -100 33 8 -23 -93 0
-130 92 0
-130 -35 0
-130 62 0
-130 -82 0
-130 61 0
-130 21 0
-130 -53 0
-130 80 0
-130 -30 0
-130 -17 0
130 -92 35 -62 82 -61 -21 53 -80 30 17 0
121 122 123 124 125 126 127 128 129 130 0
-131 -61 0
-131 -23 0
-131 89 0
-131 12 0
-131 -51 0
-131 -31 0
-131 -33 0
-131 1 0
-131 72 0
-131 100 0
131 61 23 -89 -12 51 31 33 -1 -72 -100 0
-132 -10 0
-132 67 0
-132 -14 0
-132 -70 0
-132 56 0
-132 21 0
-132 -34 0
-132 -63 0
-132 -43 0
-132 75 0
132 10 -67 14 70 -56 -21 34 63 43 -75 0
-133 -39 0
-133 52 0
-133 -84 0
-133 -99 0
-133 -20 0
-133 -69 0
-133 -19 0
-133 -95 0
-133 -88 0
-133 18 0
133 39 -52 84 99 20 69 19 95 88 -18 0
-134 83 0
-134 55 0
-134 -63 0
-134 -54 0
-134 99 0
-134 -61 0
-134 31 0
-134 60 0
-134 57 0
-134 93 0
134 -83 -55 63 54 -99 61 -31 -60 -57 -93 0
-135 -89 0
-135 82 0
-135 -99 0
-135 -1 0
-135 -20 0
-135 46 0
-135 -60 0
-135 -36 0
-135 2 0
-135 70 0
135 89 -82 99 1 20 -46 60 36 -2 -70 0
-136 37 0
-136 -64 0
-136 -48 0
-136 -43 0
-136 98 0
-136 -21 0
-136 4 0
-136 -2 0
-136 76 0
-136 -9 0
136 -37 64 48 43 -98 21 -4 2 -76 9 0
-137 42 0
-137 -20 0
-137 -78 0
-137 88 0
-137 69 0
-137 31 0
-137 9 0
-137 67 0
-137 -57 0
-137 -92 0
137 -42 20 78 -88 -69 -31 -9 -67 57 92 0
-138 33 0
-138 -31 0
-138 16 0
-138 62 0
-138 32 0
-138 96 0
-138 -79 0
-138 -50 0
-138 -20 0
-138 11 0
138 -33 31 -16 -62 -32 -96 79 50 20 -11 0
-139 28 0
-139 -6 0
-139 63 0
-139 22 0
-139 -26 0
-139 -36 0
-139 -52 0
-139 81 0
-139 46 0
-139 18 0
139 -28 6 -63 -22 26 36 52 -81 -46 -18 0
-140 -24 0
-140 57 0
-140 10 0
-140 -32 0
-140 47 0
-140 50 0
-140 98 0
-140 7 0
-140 91 0
-140 -46 0
140 24 -57 -10 32 -47 -50 -98 -7 -91 46 0
131 132 133 134 135 136 137 138 139 140 0
-141 47 0
-141 -95 0
-141 -90 0
-141 -24 0
-141 -39 0
-141 18 0
-141 -75 0
-141 -29 0
-141 7 0
-141 65 0
141 -47 95 90 24 39 -18 75 29 -7 -65 0
-142 -84 0
-142 97 0
-142 -61 0
-142 -42 0
-142 -63 0
-142 85 0
-142 38 0
-142 -78 0
-142 83 0
-142 46 0
142 84 -97 61 42 63 -85 -38 78 -83 -46 0
-143 86 0
-143 -92 0
-143 59 0
-143 -48 0
-143 65 0
-143 76 0
-143 -35 0
-143 -53 0
-143 -10 0
-143 -42 0
143 -86 92 -59 48 -65 -76 35 53 10 42 0
-144 24 0
-144 -60 0
-144 -72 0
-144 26 0
-144 2 0
-144 4 0
-144 50 0
-144 -96 0
-144 5 0
-144 -40 0
144 -24 60 72 -26 -2 -4 -50 96 -5 40 0
-145 77 0
-145 -83 0
-145 -7 0
-145 -74 0
-145 58 0
-145 -63 0
-145 73 0
-145 -2 0
-145 -38 0
-145 89 0
145 -77 83 7 74 -58 63 -73 2 38 -89 0
-146 87 0
-146 -66 0
-146 39 0
-146 95 0
-146 -11 0
-146 85 0
-146 -97 0
-146 -46 0
-146 78 0
-146 -98 0
146 -87 66 -39 -95 11 -85 97 46 -78 98 0
-147 48 0
-147 97 0
-147 96 0
-147 28 0
-147 42 0
-147 -57 0
-147 -86 0
-147 -60 0
-147 4 0
-147 88 0
147 -48 -97 -96 -28 -42 57 86 60 -4 -88 0
-148 23 0
-148 -4 0
-148 19 0
-148 -68 0
-148 -41 0
-148 16 0
-148 28 0
-148 91 0
-148 43 0
-148 -36 0
148 -23 4 -19 68 41 -16 -28 -91 -43 36 0
-149 59 0
-149 -2 0
-149 -18 0
-149 -43 0
-149 -41 0
-149 -52 0
-149 70 0
-149 7 0
-149 39 0
-149 -6 0
149 -59 2 18 43 41 52 -70 -7 -39 6 0
-150 20 0
-150 -60 0
-150 -11 0
-150 -74 0
-150 67 0
-150 88 0
-150 30 0
-150 97 0
-150 -45 0
-150 25 0
150 -20 60 11 74 -67 -88 -30 -97 45 -25 0
141 142 143 144 145 146 147 148 149 150 0
-151 -69 0
-151 -37 0
-151 -76 0
-151 -12 0
-151 -29 0
-151 56 0
-151 62 0
-151 39 0
-151 -60 0
-151 84 0
151 69 37 76 12 29 -56 -62 -39 60 -84 0
-152 -38 0
-152 68 0
-152 69 0
-152 8 0
-152 -42 0
-152 37 0
-152 -44 0
-152 96 0
-152 28 0
-152 -97 0
152 38 -68 -69 -8 42 -37 44 -96 -28 97 0
-153 39 0
-153 95 0
-153 -63 0
-153 35 0
-153 -86 0
-153 -59 0
-153 4 0
-153 -14 0
-153 -17 0
-153 -70 0
153 -39 -95 63 -35 86 59 -4 14 17 70 0
-154 -84 0
-154 -36 0
-154 18 0
-154 -68 0
-154 14 0
-154 21 0
-154 -41 0
-154 -37 0
-154 67 0
-154 -24 0
154 84 36 -18 68 -14 -21 41 37 -67 24 0
-155 -74 0
-155 -34 0
-155 -7 0
-155 30 0
-155 -82 0
-155 72 0
-155 98 0
-155 -39 0
-155 28 0
-155 14 0
155 74 34 7 -30 82 -72 -98 39 -28 -14 0
-156 -10 0
-156 -82 0
-156 -8 0
-156 -34 0
-156 21 0
-156 50 0
-156 -19 0
-156 -92 0
-156 25 0
-156 52 0
156 10 82 8 34 -21 -50 19 92 -25 -52 0
-157 -95 0
-157 -76 0
-157 -54 0
-157 9 0
-157 89 0
-157 -22 0
-157 24 0
-157 -87 0
-157 83 0
-157 21 0
157 95 76 54 -9 -89 22 -24 87 -83 -21 0
-158 3 0
-158 -97 0
-158 -1 0
-158 86 0
-158 -36 0
-158 65 0
-158 -66 0
-158 56 0
-158 2 0
-158 -55 0
158 -3 97 1 -86 36 -65 66 -56 -2 55 0
-159 -61 0
-159 3 0
-159 -28 0
-159 -52 0
-159 86 0
-159 -79 0
-159 -59 0
-159 -73 0
-159 32 0
-159 20 0
159 61 -3 28 52 -86 79 59 73 -32 -20 0
-160 -42 0
-160 -40 0
-160 -79 0
-160 12 0
-160 -100 0
-160 -11 0
-160 53 0
-160 -30 0
-160 -17 0
-160 -50 0
160 42 40 79 -12 100 11 -53 30 17 50 0
151 152 153 154 155 156 157 158 159 160 0
-161 -65 0
-161 -43 0
-161 67 0
-161 30 0
-161 -22 0
-161 100 0
-161 4 0
-161 -32 0
-161 25 0
-161 -74 0
161 65 43 -67 -30 22 -100 -4 32 -25 74 0
-162 84 0
-162 34 0
-162 87 0
-162 22 0
-162 97 0
-162 14 0
-162 -69 0
-162 -64 0
-162 37 0
-162 -80 0
162 -84 -34 -87 -22 -97 -14 69 64 -37 80 0
-163 69 0
-163 -91 0
-163 -70 0
-163 -87 0
-163 68 0
-163 34 0
-163 -88 0
-163 -85 0
-163 66 0
-163 -47 0
163 -69 91 70 87 -68 -34 88 85 -66 47 0
-164 71 0
-164 53 0
-164 -87 0
-164 -9 0
-164 -96 0
-164 -2 0
-164 -39 0
-164 91 0
-164 7 0
-164 -78 0
164 -71 -53 87 9 96 2 39 -91 -7 78 0
-165 -75 0
-165 37 0
-165 -79 0
-165 69 0
-165 -44 0
-165 -52 0
-165 38 0
-165 45 0
-165 -72 0
-165 50 0
165 75 -37 79 -69 44 52 -38 -45 72 -50 0
-166 -68 0
-166 86 0
-166 -84 0
-166 85 0
-166 -65 0
-166 -57 0
-166 -26 0
-166 14 0
-166 -17 0
-166 23 0
166 68 -86 84 -85 65 57 26 -14 17 -23 0
-167 -74 0
-167 28 0
-167 53 0
-167 100 0
-167 -91 0
-167 68 0
-167 84 0
-167 85 0
-167 93 0
-167 56 0
167 74 -28 -53 -100 91 -68 -84 -85 -93 -56 0
-168 -61 0
-168 -84 0
-168 42 0
-168 -58 0
-168 73 0
-168 -97 0
-168 98 0
-168 88 0
-168 -31 0
-168 -29 0
168 61 84 -42 58 -73 97 -98 -88 31 29 0
-169 88 0
-169 -55 0
-169 30 0
-169 -24 0
-169 77 0
-169 -13 0
-169 -3 0
-169 60 0
-169 -14 0
-169 -93 0
169 -88 55 -30 24 -77 13 3 -60 14 93 0
-170 93 0
-170 -21 0
-170 -99 0
-170 35 0
-170 30 0
-170 -40 0
-170 12 0
-170 -87 0
-170 -48 0
-170 -70 0
170 -93 21 99 -35 -30 40 -12 87 48 70 0
161 162 163 164 165 166 167 168 169 170 0
-171 56 0
-171 -55 0
-171 -30 0
-171 88 0
-171 15 0
-171 -35 0
-171 48 0
-171 -43 0
-171 18 0
-171 -87 0
171 -56 55 30 -88 -15 35 -48 43 -18 87 0
-172 18 0
-172 97 0
-172 95 0
-172 -61 0
-172 36 0
-172 62 0
-172 55 0
-172 72 0
-172 -15 0
-172 4 0
172 -18 -97 -95 61 -36 -62 -55 -72 15 -4 0
-173 -87 0
-173 85 0
-173 -36 0
-173 -75 0
-173 -53 0
-173 89 0
-173 22 0
-173 -51 0
-173 66 0
-173 -19 0
173 87 -85 36 75 53 -89 -22 51 -66 19 0
-174 82 0
-174 -22 0
-174 -7 0
-174 -64 0
-174 91 0
-174 25 0
-174 97 0
-174 38 0
-174 76 0
-174 -24 0
174 -82 22 7 64 -91 -25 -97 -38 -76 24 0
-175 -35 0
-175 -32 0
-175 50 0
-175 -92 0
-175 28 0
-175 -90 0
-175 61 0
-175 -95 0
-175 -67 0
-175 -79 0
175 35 32 -50 92 -28 90 -61 95 67 79 0
-176 2 0
-176 95 0
-176 45 0
-176 91 0
-176 31 0
-176 92 0
-176 -23 0
-176 -59 0
-176 -84 0
-176 -37 0
176 -2 -95 -45 -91 -31 -92 23 59 84 37 0
-177 -54 0
-177 94 0
-177 -14 0
-177 83 0
-177 -12 0
-177 -16 0
-177 -100 0
-177 -15 0
-177 6 0
-177 -88 0
177 54 -94 14 -83 12 16 100 15 -6 88 0
-178 75 0
-178 14 0
-178 -17 0
-178 -79 0
-178 -51 0
-178 -64 0
-178 39 0
-178 72 0
-178 9 0
-178 36 0
178 -75 -14 17 79 51 64 -39 -72 -9 -36 0
-179 89 0
-179 -27 0
-179 4 0
-179 -16 0
-179 28 0
-179 69 0
-179 94 0
-179 -46 0
-179 -74 0
-179 -71 0
179 -89 27 -4 16 -28 -69 -94 46 74 71 0
-180 -62 0
-180 -75 0
-180 56 0
-180 -100 0
-180 -78 0
-180 16 0
-180 95 0
-180 -14 0
-180 4 0
-180 17 0
180 62 75 -56 100 78 -16 -95 14 -4 -17 0
171 172 173 174 175 176 177 178 179 180 0
-181 57 0
-181 26 0
-181 -25 0
-181 18 0
-181 -69 0
-181 -95 0
-181 -50 0
-181 13 0
-181 -96 0
-181 -39 0
181 -57 -26 25 -18 69 95 50 -13 96 39 0
-182 -53 0
-182 -63 0
-182 -33 0
-182 -91 0
-182 -3 0
-182 -87 0
-182 -71 0
-182 -15 0
-182 32 0
-182 40 0
182 53 63 33 91 3 87 71 15 -32 -40 0
-183 97 0
-183 -15 0
-183 -17 0
-183 -37 0
-183 95 0
-183 -5 0
-183 4 0
-183 88 0
-183 68 0
-183 24 0
183 -97 15 17 37 -95 5 -4 -88 -68 -24 0
-184 88 0
-184 -1 0
-184 -76 0
-184 96 0
-184 -56 0
-184 -14 0
-184 -89 0
-184 -9 0
-184 -49 0
-184 22 0
184 -88 1 76 -96 56 14 89 9 49 -22 0
-185 35 0
-185 51 0
-185 -54 0
-185 -63 0
-185 -58 0
-185 37 0
-185 -62 0
-185 -74 0
-185 88 0
-185 -8 0
185 -35 -51 54 63 58 -37 62 74 -88 8 0
-186 58 0
-186 -27 0
-186 -37 0
-186 -50 0
-186 77 0
-186 -24 0
-186 57 0
-186 -17 0
-186 -41 0
-186 -5 0
186 -58 27 37 50 -77 24 -57 17 41 5 0
-187 74 0
-187 23 0
-187 29 0
-187 26 0
-187 48 0
-187 85 0
-187 10 0
-187 -69 0
-187 58 0
-187 -54 0
187 -74 -23 -29 -26 -48 -85 -10 69 -58 54 0
-188 -56 0
-188 83 0
-188 68 0
-188 50 0
-188 16 0
-188 -60 0
-188 92 0
-188 57 0
-188 -85 0
-188 -9 0
188 56 -83 -68 -50 -16 60 -92 -57 85 9 0
-189 91 0
-189 28 0
-189 44 0
-189 40 0
-189 -99 0
-189 92 0
-189 34 0
-189 -79 0
-189 32 0
-189 -35 0
189 -91 -28 -44 -40 99 -92 -34 79 -32 35 0
-190 18 0
-190 -14 0
-190 -9 0
-190 -48 0
-190 -37 0
-190 -8 0
-190 2 0
-190 76 0
-190 -88 0
-190 42 0
190 -18 14 9 48 37 8 -2 -76 88 -42 0
181 182 183 184 185 186 187 188 189 190 0
-191 25 0
-191 60 0
-191 3 0
-191 -32 0
-191 55 0
-191 -56 0
-191 -18 0
-191 -16 0
-191 -49 0
-191 65 0
191 -25 -60 -3 32 -55 56 18 16 49 -65 0
-192 51 0
-192 58 0
-192 21 0
-192 90 0
-192 -12 0
-192 33 0
-192 -11 0
-192 -97 0
-192 -44 0
-192 67 0
192 -51 -58 -21 -90 12 -33 11 97 44 -67 0
-193 -98 0
-193 -59 0
-193 -33 0
-193 -97 0
-193 -30 0
-193 -62 0
-193 -10 0
-193 -23 0
-193 66 0
-193 20 0
193 98 59 33 97 30 62 10 23 -66 -20 0
-194 32 0
-194 -34 0
-194 49 0
-194 -15 0
-194 -71 0
-194 -47 0
-194 -54 0
-194 81 0
-194 20 0
-194 66 0
194 -32 34 -49 15 71 47 54 -81 -20 -66 0
-195 -77 0
-195 -51 0
-195 -9 0
-195 -26 0
-195 49 0
-195 -11 0
-195 -10 0
-195 14 0
-195 -22 0
-195 27 0
195 77 51 9 26 -49 11 10 -14 22 -27 0
-196 11 0
-196 79 0
-196 -66 0
-196 -61 0
-196 -13 0
-196 54 0
-196 38 0
-196 63 0
-196 52 0
-196 4 0
196 -11 -79 66 61 13 -54 -38 -63 -52 -4 0
-197 19 0
-197 10 0
-197 48 0
-197 17 0
-197 -67 0
-197 -49 0
-197 2 0
-197 71 0
-197 39 0
-197 -9 0
197 -19 -10 -48 -17 67 49 -2 -71 -39 9 0
-198 -77 0
-198 26 0
-198 39 0
-198 -91 0
-198 -95 0
-198 11 0
-198 35 0
-198 78 0
-198 75 0
-198 -63 0
198 77 -26 -39 91 95 -11 -35 -78 -75 63 0
-199 -91 0
-199 20 0
-199 6 0
-199 47 0
-199 28 0
-199 75 0
-199 -64 0
-199 11 0
-199 -39 0
-199 -43 0
199 91 -20 -6 -47 -28 -75 64 -11 39 43 0
-200 -2 0
-200 -53 0
-200 -70 0
-200 -75 0
-200 -47 0
-200 49 0
-200 74 0
-200 -93 0
-200 -4 0
-200 79 0
200 2 53 70 75 47 -49 -74 93 4 -79 0
191 192 193 194 195 196 197 198 199 200 0
